     Program PWSCF v.6.0 (svn rev. 13079) starts on 10Jan2019 at 13:20:10

     Current dimensions of program PWSCF are:
     Max number of different atomic species (ntypx) = 10
     Max number of k-points (npk) =  40000
     Max angular momentum in pseudopotentials (lmaxx) =  3
     Message from routine iosys:
     london is obsolete, use "vdw_corr='grimme-d2'" instead
               file Bi.rel-pbe-dn-kjpaw_psl.1.0.0.UPF: wavefunction(s)  6P 6P 5D 5D renormalized
               file Se.rel-pbe-dn-kjpaw_psl.1.0.0.UPF: wavefunction(s)  4S 4P 4P 3D 3D renormalized

     Parameters for Dispersion Correction:
       atom      VdW radius       C_6

        Bi         3.586       2204.274
        Se         3.347        438.498

     bravais-lattice index     =            0
     lattice parameter (alat)  =      18.5969  a.u.
     unit-cell volume          =     955.3444 (a.u.)^3
     number of atoms/cell      =            5
     number of atomic types    =            2
     number of electrons       =        78.00
     number of Kohn-Sham states=           82
     kinetic-energy cutoff     =      60.0000  Ry
     charge density cutoff     =     720.0000  Ry
     convergence threshold     =      1.0E-12
     mixing beta               =       0.7000
     number of iterations used =            8  plain     mixing
     Exchange-correlation      =  SLA  PW   PBX  PBC ( 1  4  3  4 0 0)
     Non magnetic calculation with spin-orbit

     celldm(1)=  18.596914  celldm(2)=   0.000000  celldm(3)=   0.000000
     celldm(4)=   0.000000  celldm(5)=   0.000000  celldm(6)=   0.000000

     crystal axes: (cart. coord. in units of alat)
               a(1) = (  -0.210242  -0.121383   0.970085 )
               a(2) = (   0.210242  -0.121383   0.970085 )
               a(3) = (   0.000000   0.242766   0.970085 )

     reciprocal axes: (cart. coord. in units 2 pi/alat)
               b(1) = ( -2.378217 -1.373064  0.343613 )
               b(2) = (  2.378217 -1.373064  0.343613 )
               b(3) = (  0.000000  2.746129  0.343613 )

     PseudoPot. # 1 for Bi read from file:
     ../PP/Bi.rel-pbe-dn-kjpaw_psl.1.0.0.UPF
     MD5 check sum: bd070c315d001126676c8eb4b614763a
     Pseudo is Projector augmented-wave + core cor, Zval = 15.0
     Generated using "atomic" code by A. Dal Corso  v.6.1
     Shape of augmentation charge: PSQ
     Using radial grid of 1283 points, 10 beta functions with:
                l(1) =   0
                l(2) =   0
                l(3) =   1
                l(4) =   1
                l(5) =   1
                l(6) =   1
                l(7) =   2
                l(8) =   2
                l(9) =   2
               l(10) =   2
     Q(r) pseudized with 0 coefficients

     PseudoPot. # 2 for Se read from file:
     ../PP/Se.rel-pbe-dn-kjpaw_psl.1.0.0.UPF
     MD5 check sum: cf4a46bb3dffd39c94069db90665377e
     Pseudo is Projector augmented-wave + core cor, Zval = 16.0
     Generated using "atomic" code by A. Dal Corso  v.6.1
     Shape of augmentation charge: PSQ
     Using radial grid of 1211 points, 10 beta functions with:
                l(1) =   0
                l(2) =   0
                l(3) =   1
                l(4) =   1
                l(5) =   1
                l(6) =   1
                l(7) =   2
                l(8) =   2
                l(9) =   2
               l(10) =   2
     Q(r) pseudized with 0 coefficients

     atomic species   valence    mass     pseudopotential
        Bi            15.00   208.98040     Bi( 1.00)
        Se            16.00    78.96000     Se( 1.00)

     12 Sym. Ops., with inversion, found

                                    s                        frac. trans.

      isym =  1     identity

 cryst.   s( 1) = (     1          0          0      )
                  (     0          1          0      )
                  (     0          0          1      )

 cart.    s( 1) = (  1.0000000 -0.0000000  0.0000000 )
                  ( -0.0000000  1.0000000 -0.0000000 )
                  ( -0.0000000 -0.0000000  1.0000000 )

      isym =  2     180 deg rotation - cart. axis [1,0,0]

[...]

      isym =  3     120 deg rotation - cryst. axis [0,0,1]

[...]

      isym =  6     180 deg rotation - cryst. axis [1,1,0]

[...]

      isym =  7     inversion

[...]

      isym =  8     inv. 180 deg rotation - cart. axis [1,0,0]

[...]

      isym =  9     inv. 120 deg rotation - cryst. axis [0,0,1]

 cryst.   s( 9) = (     0         -1          0      )
                  (     0          0         -1      )
                  (    -1          0          0      )

 cart.    s( 9) = (  0.5000000  0.8660254 -0.0000000 )
                  ( -0.8660254  0.5000000  0.0000000 )
                  (  0.0000000 -0.0000000 -1.0000000 )

[...]

 cryst.   s(10) = (     0          0         -1      )
                  (    -1          0          0      )
                  (     0         -1          0      )

 cart.    s(10) = (  0.5000000 -0.8660254 -0.0000000 )
                  (  0.8660254  0.5000000  0.0000000 )
                  ( -0.0000000 -0.0000000 -1.0000000 )

[...]

      isym = 12     inv. 180 deg rotation - cryst. axis [1,1,0]

 cryst.   s(12) = (     0          0          1      )
                  (     0          1          0      )
                  (     1          0          0      )

 cart.    s(12) = (  0.5000000 -0.8660254  0.0000000 )
                  ( -0.8660254 -0.5000000 -0.0000000 )
                  (  0.0000000  0.0000000  1.0000000 )

   Cartesian axes

     site n.     atom                  positions (alat units)
         1           Bi  tau(   1) = (   0.0000000   0.0000000  -1.1648382  )
         2           Se  tau(   2) = (   0.0000000   0.0000000   0.0000000  )
         3           Bi  tau(   3) = (  -0.0000000  -0.0000000   1.1648382  )
         4           Se  tau(   4) = (  -0.0000000   0.0000000  -0.6128911  )
         5           Se  tau(   5) = (   0.0000000  -0.0000000   0.6128911  )

   Crystallographic axes

     site n.     atom                  positions (cryst. coord.)
         1           Bi  tau(   1) = ( -0.4002530 -0.4002530 -0.4002530  )
         2           Se  tau(   2) = (  0.0000000  0.0000000  0.0000000  )
         3           Bi  tau(   3) = (  0.4002530  0.4002530  0.4002530  )
         4           Se  tau(   4) = ( -0.2105971 -0.2105971 -0.2105971  )
         5           Se  tau(   5) = (  0.2105971  0.2105971  0.2105971  )

     number of k points=   146
                       cart. coord. in units 2pi/alat
        k(    1) = (   0.0000000   0.0000000   0.0000000), wk =   0.0007513
        k(    2) = (   0.0000000   0.2496481   0.0312375), wk =   0.0045079
        k(    3) = (   0.0000000   0.4992961   0.0624750), wk =   0.0045079
        k(    4) = (   0.0000000   0.7489442   0.0937125), wk =   0.0045079
        k(    5) = (   0.0000000   0.9985923   0.1249500), wk =   0.0045079
        k(    6) = (   0.0000000   1.2482404   0.1561875), wk =   0.0045079
        k(    7) = (   0.2162016   0.1248240   0.0624750), wk =   0.0045079
        k(    8) = (   0.2162016   0.3744721   0.0937125), wk =   0.0090158
        k(    9) = (   0.2162016   0.6241202   0.1249500), wk =   0.0090158
        k(   10) = (   0.2162016   0.8737683   0.1561875), wk =   0.0090158
        k(   11) = (   0.2162016   1.1234163   0.1874250), wk =   0.0090158
        k(   12) = (   0.2162016  -1.3730644  -0.1249500), wk =   0.0090158
        k(   13) = (   0.2162016  -1.1234163  -0.0937125), wk =   0.0090158
        k(   14) = (   0.2162016  -0.8737683  -0.0624750), wk =   0.0090158
        k(   15) = (   0.2162016  -0.6241202  -0.0312375), wk =   0.0090158
        k(   16) = (   0.2162016  -0.3744721  -0.0000000), wk =   0.0045079
        k(   17) = (   0.4324031   0.2496481   0.1249500), wk =   0.0045079
        k(   18) = (   0.4324031   0.4992961   0.1561875), wk =   0.0090158
        k(   19) = (   0.4324031   0.7489442   0.1874250), wk =   0.0090158
        k(   20) = (   0.4324031   0.9985923   0.2186625), wk =   0.0090158
        k(   21) = (   0.4324031  -1.4978884  -0.0937125), wk =   0.0090158
        k(   22) = (   0.4324031  -1.2482404  -0.0624750), wk =   0.0090158
        k(   23) = (   0.4324031  -0.9985923  -0.0312375), wk =   0.0090158
        k(   24) = (   0.4324031  -0.7489442   0.0000000), wk =   0.0045079
        k(   25) = (   0.6486047   0.3744721   0.1874250), wk =   0.0045079
        k(   26) = (   0.6486047   0.6241202   0.2186625), wk =   0.0090158
        k(   27) = (   0.6486047   0.8737683   0.2499000), wk =   0.0090158
        k(   28) = (   0.6486047  -1.6227125  -0.0624750), wk =   0.0090158
        k(   29) = (   0.6486047  -1.3730644  -0.0312375), wk =   0.0090158
        k(   30) = (   0.6486047  -1.1234163  -0.0000000), wk =   0.0045079
        k(   31) = (   0.8648063   0.4992961   0.2499000), wk =   0.0045079
        k(   32) = (   0.8648063   0.7489442   0.2811375), wk =   0.0090158
        k(   33) = (   0.8648063  -1.7475365  -0.0312375), wk =   0.0090158
        k(   34) = (   0.8648063  -1.4978884   0.0000000), wk =   0.0045079
        k(   35) = (   1.0810079   0.6241202   0.3123750), wk =   0.0045079
        k(   36) = (   1.0810079  -1.8723606  -0.0000000), wk =   0.0045079
        k(   37) = (  -0.0000000  -0.0000000   0.0937125), wk =   0.0015026
        k(   38) = (  -0.0000000   0.2496481   0.1249500), wk =   0.0045079
        k(   39) = (   0.0000000   0.4992961   0.1561875), wk =   0.0045079
        k(   40) = (   0.0000000   0.7489442   0.1874250), wk =   0.0045079
        k(   41) = (   0.0000000   0.9985923   0.2186625), wk =   0.0045079
        k(   42) = (  -0.0000000  -1.4978884  -0.0937125), wk =   0.0045079
        k(   43) = (  -0.0000000  -1.2482404  -0.0624750), wk =   0.0045079
        k(   44) = (  -0.0000000  -0.9985923  -0.0312375), wk =   0.0045079
        k(   45) = (  -0.0000000  -0.7489442   0.0000000), wk =   0.0045079
        k(   46) = (  -0.0000000  -0.4992961   0.0312375), wk =   0.0045079
        k(   47) = (   0.2162016   0.1248240   0.1561875), wk =   0.0045079
        k(   48) = (   0.2162016   0.3744721   0.1874250), wk =   0.0090158
        k(   49) = (   0.2162016   0.6241202   0.2186625), wk =   0.0090158
        k(   50) = (   0.2162016   0.8737683   0.2499000), wk =   0.0090158
        k(   51) = (   0.2162016  -1.6227125  -0.0624750), wk =   0.0090158
        k(   52) = (   0.2162016  -1.3730644  -0.0312375), wk =   0.0090158
        k(   53) = (   0.2162016  -1.1234163   0.0000000), wk =   0.0090158
        k(   54) = (   0.2162016  -0.8737683   0.0312375), wk =   0.0090158
        k(   55) = (   0.2162016  -0.6241202   0.0624750), wk =   0.0090158
        k(   56) = (   0.4324031   0.2496481   0.2186625), wk =   0.0045079
        k(   57) = (   0.4324031   0.4992961   0.2499000), wk =   0.0090158
        k(   58) = (   0.4324031   0.7489442   0.2811375), wk =   0.0090158
        k(   59) = (   0.4324031  -1.7475365  -0.0312375), wk =   0.0090158
        k(   60) = (   0.4324031  -1.4978884  -0.0000000), wk =   0.0090158
[...]
        k(  132) = (   0.4324031  -1.9971846   0.1249500), wk =   0.0090158
[...]
        k(    2) = (   0.0000000   0.0000000   0.0909091), wk =   0.0045079
        k(    3) = (   0.0000000   0.0000000   0.1818182), wk =   0.0045079
        k(    4) = (   0.0000000   0.0000000   0.2727273), wk =   0.0045079
        k(    5) = (   0.0000000   0.0000000   0.3636364), wk =   0.0045079
        k(    6) = (   0.0000000   0.0000000   0.4545455), wk =   0.0045079
        k(    7) = (   0.0000000   0.0909091   0.0909091), wk =   0.0045079
        k(    8) = (   0.0000000   0.0909091   0.1818182), wk =   0.0090158
        k(    9) = (   0.0000000   0.0909091   0.2727273), wk =   0.0090158
        k(   10) = (   0.0000000   0.0909091   0.3636364), wk =   0.0090158
        k(   11) = (   0.0000000   0.0909091   0.4545455), wk =   0.0090158
        k(   12) = (  -0.0000000   0.0909091  -0.4545455), wk =   0.0090158
        k(   13) = (  -0.0000000   0.0909091  -0.3636364), wk =   0.0090158
        k(   14) = (  -0.0000000   0.0909091  -0.2727273), wk =   0.0090158
        k(   15) = (   0.0000000   0.0909091  -0.1818182), wk =   0.0090158
        k(   16) = (   0.0000000   0.0909091  -0.0909091), wk =   0.0045079
        k(   17) = (   0.0000000   0.1818182   0.1818182), wk =   0.0045079
        k(   18) = (   0.0000000   0.1818182   0.2727273), wk =   0.0090158
        k(   19) = (   0.0000000   0.1818182   0.3636364), wk =   0.0090158
        k(   20) = (   0.0000000   0.1818182   0.4545455), wk =   0.0090158
        k(   21) = (   0.0000000   0.1818182  -0.4545455), wk =   0.0090158
        k(   22) = (  -0.0000000   0.1818182  -0.3636364), wk =   0.0090158
        k(   23) = (   0.0000000   0.1818182  -0.2727273), wk =   0.0090158
        k(   24) = (   0.0000000   0.1818182  -0.1818182), wk =   0.0045079
        k(   25) = (   0.0000000   0.2727273   0.2727273), wk =   0.0045079
        k(   26) = (   0.0000000   0.2727273   0.3636364), wk =   0.0090158
        k(   27) = (   0.0000000   0.2727273   0.4545455), wk =   0.0090158
        k(   28) = (   0.0000000   0.2727273  -0.4545455), wk =   0.0090158
        k(   29) = (   0.0000000   0.2727273  -0.3636364), wk =   0.0090158
        k(   30) = (  -0.0000000   0.2727273  -0.2727273), wk =   0.0045079
        k(   31) = (   0.0000000   0.3636364   0.3636364), wk =   0.0045079
        k(   32) = (   0.0000000   0.3636364   0.4545455), wk =   0.0090158
        k(   33) = (  -0.0000000   0.3636364  -0.4545455), wk =   0.0090158
        k(   34) = (   0.0000000   0.3636364  -0.3636364), wk =   0.0045079
        k(   35) = (   0.0000000   0.4545455   0.4545455), wk =   0.0045079
        k(   36) = (   0.0000000   0.4545455  -0.4545455), wk =   0.0045079
        k(   37) = (   0.0909091   0.0909091   0.0909091), wk =   0.0015026
        k(   38) = (   0.0909091   0.0909091   0.1818182), wk =   0.0045079
        k(   39) = (   0.0909091   0.0909091   0.2727273), wk =   0.0045079
        k(   40) = (   0.0909091   0.0909091   0.3636364), wk =   0.0045079
        k(   41) = (   0.0909091   0.0909091   0.4545455), wk =   0.0045079
        k(   42) = (   0.0909091   0.0909091  -0.4545455), wk =   0.0045079
        k(   43) = (   0.0909091   0.0909091  -0.3636364), wk =   0.0045079
        k(   44) = (   0.0909091   0.0909091  -0.2727273), wk =   0.0045079
        k(   45) = (   0.0909091   0.0909091  -0.1818182), wk =   0.0045079
        k(   46) = (   0.0909091   0.0909091  -0.0909091), wk =   0.0045079
        k(   47) = (   0.0909091   0.1818182   0.1818182), wk =   0.0045079
        k(   48) = (   0.0909091   0.1818182   0.2727273), wk =   0.0090158
        k(   49) = (   0.0909091   0.1818182   0.3636364), wk =   0.0090158
        k(   50) = (   0.0909091   0.1818182   0.4545455), wk =   0.0090158
        k(   51) = (   0.0909091   0.1818182  -0.4545455), wk =   0.0090158
        k(   52) = (   0.0909091   0.1818182  -0.3636364), wk =   0.0090158
        k(   53) = (   0.0909091   0.1818182  -0.2727273), wk =   0.0090158
        k(   54) = (   0.0909091   0.1818182  -0.1818182), wk =   0.0090158
        k(   55) = (   0.0909091   0.1818182  -0.0909091), wk =   0.0090158
        k(   56) = (   0.0909091   0.2727273   0.2727273), wk =   0.0045079
        k(   57) = (   0.0909091   0.2727273   0.3636364), wk =   0.0090158
        k(   58) = (   0.0909091   0.2727273   0.4545455), wk =   0.0090158
        k(   59) = (   0.0909091   0.2727273  -0.4545455), wk =   0.0090158
        k(   60) = (   0.0909091   0.2727273  -0.3636364), wk =   0.0090158
[...]
        k(  132) = (   0.2727273   0.4545455  -0.3636364), wk =   0.0090158
        k(  133) = (   0.2727273   0.4545455  -0.2727273), wk =   0.0090158
        k(  134) = (   0.2727273  -0.4545455  -0.4545455), wk =   0.0045079
        k(  135) = (   0.2727273  -0.4545455  -0.3636364), wk =   0.0090158
        k(  136) = (   0.2727273  -0.3636364  -0.3636364), wk =   0.0045079
        k(  137) = (   0.3636364   0.3636364   0.3636364), wk =   0.0015026
        k(  138) = (   0.3636364   0.3636364   0.4545455), wk =   0.0045079
        k(  139) = (   0.3636364   0.3636364  -0.4545455), wk =   0.0045079
        k(  140) = (   0.3636364   0.3636364  -0.3636364), wk =   0.0045079
        k(  141) = (   0.3636364   0.4545455   0.4545455), wk =   0.0045079
        k(  142) = (   0.3636364   0.4545455  -0.4545455), wk =   0.0090158
        k(  143) = (   0.3636364   0.4545455  -0.3636364), wk =   0.0090158
        k(  144) = (   0.3636364  -0.4545455  -0.4545455), wk =   0.0045079
        k(  145) = (   0.4545455   0.4545455   0.4545455), wk =   0.0015026
        k(  146) = (   0.4545455   0.4545455  -0.4545455), wk =   0.0045079

     Initial potential from superposition of free atoms

     starting charge   77.99805, renormalised to   78.00000
     Starting wfc are   90 randomized atomic wfcs
     Checking if some PAW data can be deallocated...
       node    0, deallocated PAW data for type:  2
       node    1, deallocated PAW data for type:  2
       node    2, deallocated PAW data for type:  2
       node    3, deallocated PAW data for type:  2
       node    4, deallocated PAW data for type:  2
       node    5, deallocated PAW data for type:  2
       node    6, deallocated PAW data for type:  2
       node    7, deallocated PAW data for type:  2
       node    8, deallocated PAW data for type:  1
       node    9, deallocated PAW data for type:  1
       node   10, deallocated PAW data for type:  1
       node   11, deallocated PAW data for type:  1
       node   12, deallocated PAW data for type:  1
       node   13, deallocated PAW data for type:  1
       node   14, deallocated PAW data for type:  1
       node   15, deallocated PAW data for type:  1
       node   16, deallocated PAW data for type:  2
       node   17, deallocated PAW data for type:  2
       node   18, deallocated PAW data for type:  2
       node   19, deallocated PAW data for type:  2
       node   20, deallocated PAW data for type:  2
       node   21, deallocated PAW data for type:  2
       node   22, deallocated PAW data for type:  2
       node   23, deallocated PAW data for type:  2
       node   24, deallocated PAW data for type:  1
       node   25, deallocated PAW data for type:  1
       node   26, deallocated PAW data for type:  1
       node   27, deallocated PAW data for type:  1
       node   28, deallocated PAW data for type:  1
       node   29, deallocated PAW data for type:  1
       node   30, deallocated PAW data for type:  1
       node   31, deallocated PAW data for type:  1
       node   32, deallocated PAW data for type:  1
       node   33, deallocated PAW data for type:  1
       node   34, deallocated PAW data for type:  1
       node   35, deallocated PAW data for type:  1
       node   36, deallocated PAW data for type:  1
       node   37, deallocated PAW data for type:  1
       node   38, deallocated PAW data for type:  1
       node   39, deallocated PAW data for type:  1

     Self-consistent Calculation

     iteration #  1     ecut=    60.00 Ry     beta=0.70
     Davidson diagonalization with overlap
     ethr =  1.00E-02,  avg # of iterations =  2.0

     Threshold (ethr) on eigenvalues was too large:
     Diagonalizing with lowered threshold

     Davidson diagonalization with overlap
     ethr =  5.06E-04,  avg # of iterations =  2.0

     total energy              =   -3034.82353178 Ry
     Harris-Foulkes estimate   =   -3035.09742903 Ry
     estimated scf accuracy    <       0.36042554 Ry

[...]

     total energy              =   -3035.01675782 Ry
     Harris-Foulkes estimate   =   -3035.01675782 Ry
     estimated scf accuracy    <          5.2E-12 Ry

     iteration # 13     ecut=    60.00 Ry     beta=0.70
     Davidson diagonalization with overlap
     ethr =  1.00E-13,  avg # of iterations =  1.0

     End of self-consistent calculation

          k = 0.0000 0.0000 0.0000 (  7503 PWs)   bands (ev):

   -39.1521 -39.1521 -39.1519 -39.1519 -39.1467 -39.1467 -39.1467 -39.1467
   -38.9977 -38.9977 -38.9705 -38.9705 -38.2583 -38.2583 -38.2582 -38.2582
   -38.2566 -38.2566 -38.2561 -38.2561 -38.2515 -38.2515 -38.2513 -38.2513
   -38.1056 -38.1056 -38.0944 -38.0944 -38.0703 -38.0703 -15.7289 -15.7289
   -15.7284 -15.7284 -15.7179 -15.7179 -15.7160 -15.7160 -12.7548 -12.7548
   -12.7525 -12.7525 -12.7351 -12.7351 -12.7334 -12.7334 -12.7318 -12.7318
   -12.7314 -12.7314  -5.5399  -5.5399  -4.7310  -4.7310  -4.0843  -4.0843
    -0.6691  -0.6691   0.1278   0.1278   6.1521   6.1521   6.3404   6.3404
     6.8749   6.8749   7.0779   7.0779   7.2393   7.2393   7.2630   7.2630
     7.4950   7.4950   7.7830   7.7830   8.4748   8.4748   8.9045   8.9045
    10.0811  10.0811

     occupation numbers
     1.0000   1.0000   1.0000   1.0000   1.0000   1.0000   1.0000   1.0000
     1.0000   1.0000   1.0000   1.0000   1.0000   1.0000   1.0000   1.0000
     1.0000   1.0000   1.0000   1.0000   1.0000   1.0000   1.0000   1.0000
     1.0000   1.0000   1.0000   1.0000   1.0000   1.0000   1.0000   1.0000
     1.0000   1.0000   1.0000   1.0000   1.0000   1.0000   1.0000   1.0000
     1.0000   1.0000   1.0000   1.0000   1.0000   1.0000   1.0000   1.0000
     1.0000   1.0000   1.0000   1.0000   1.0000   1.0000   1.0000   1.0000
     1.0000   1.0000   1.0000   1.0000   1.0000   1.0000   1.0000   1.0000
     1.0000   1.0000   1.0000   1.0000   1.0000   1.0000   1.0000   1.0000
     1.0000   1.0000   1.0000   1.0000   1.0000   1.0000   0.0000   0.0000
     0.0000   0.0000

[...]

          k =-0.0000-0.0000 0.0937 (  7497 PWs)   bands (ev):

[...]

          k = 0.2162-2.1220 0.1562 (  7506 PWs)   bands (ev):

[...]

          k =-0.0000-2.4965 0.1562 (  7530 PWs)   bands (ev):

   -39.1522 -39.1522 -39.1519 -39.1519 -39.1468 -39.1468 -39.1467 -39.1467
   -38.9978 -38.9978 -38.9705 -38.9705 -38.2584 -38.2584 -38.2582 -38.2582
   -38.2567 -38.2567 -38.2561 -38.2561 -38.2515 -38.2515 -38.2514 -38.2514
   -38.1057 -38.1057 -38.0945 -38.0945 -38.0703 -38.0703 -15.7285 -15.7285
   -15.7281 -15.7281 -15.7180 -15.7180 -15.7164 -15.7164 -12.7540 -12.7540
   -12.7518 -12.7518 -12.7351 -12.7351 -12.7344 -12.7344 -12.7323 -12.7323
   -12.7312 -12.7312  -5.2984  -5.2984  -5.0609  -5.0609  -3.7007  -3.7007
    -1.1198  -1.1198   0.3840   0.3840   5.7974   5.7974   5.9787   5.9787
     6.5641   6.5641   6.7803   6.7803   7.0543   7.0543   7.1162   7.1162
     7.6537   7.6537   8.1265   8.1265   8.4680   8.4680   9.1683   9.1683
     9.7291   9.7291

     occupation numbers
     1.0000   1.0000   1.0000   1.0000   1.0000   1.0000   1.0000   1.0000
     1.0000   1.0000   1.0000   1.0000   1.0000   1.0000   1.0000   1.0000
     1.0000   1.0000   1.0000   1.0000   1.0000   1.0000   1.0000   1.0000
     1.0000   1.0000   1.0000   1.0000   1.0000   1.0000   1.0000   1.0000
     1.0000   1.0000   1.0000   1.0000   1.0000   1.0000   1.0000   1.0000
     1.0000   1.0000   1.0000   1.0000   1.0000   1.0000   1.0000   1.0000
     1.0000   1.0000   1.0000   1.0000   1.0000   1.0000   1.0000   1.0000
     1.0000   1.0000   1.0000   1.0000   1.0000   1.0000   1.0000   1.0000
     1.0000   1.0000   1.0000   1.0000   1.0000   1.0000   1.0000   1.0000
     1.0000   1.0000   1.0000   1.0000   1.0000   1.0000   0.0000   0.0000
     0.0000   0.0000

     highest occupied, lowest unoccupied level (ev):     8.6076    8.9045

!    total energy              =   -3035.01675782 Ry
     Harris-Foulkes estimate   =   -3035.01675782 Ry
     estimated scf accuracy    <          2.1E-13 Ry

     total all-electron energy =   -100908.140754 Ry

     The total energy is the sum of the following terms:

     one-electron contribution =    -735.04495964 Ry
     hartree contribution      =     398.51525235 Ry
     xc contribution           =    -149.88591830 Ry
     ewald contribution        =    -595.11861076 Ry
     Dispersion Correction     =      -0.13460543 Ry
     one-center paw contrib.   =   -1953.34791604 Ry

     convergence has been achieved in  13 iterations

     Forces acting on atoms (Ry/au):

     atom    1 type  1   force =    -0.00000000    0.00000000   -0.00007384
     atom    2 type  2   force =     0.00000000   -0.00000000   -0.00000000
     atom    3 type  1   force =    -0.00000000   -0.00000000    0.00007384
     atom    4 type  2   force =     0.00000000    0.00000000   -0.00007150
     atom    5 type  2   force =     0.00000000   -0.00000000    0.00007150
     The non-local contrib.  to forces
     atom    1 type  1   force =    -0.00000000   -0.00000000   -0.16900789
     atom    2 type  2   force =     0.00000000    0.00000000    0.00000000
     atom    3 type  1   force =     0.00000000   -0.00000000    0.16900789
     atom    4 type  2   force =     0.00000000    0.00000000   -0.53241231
     atom    5 type  2   force =     0.00000000    0.00000000    0.53241231
     The ionic contribution  to forces
     atom    1 type  1   force =    -0.00000000    0.00000000   -2.10575970
     atom    2 type  2   force =     0.00000000    0.00000000    0.00000000
     atom    3 type  1   force =     0.00000000   -0.00000000    2.10575970
     atom    4 type  2   force =    -0.00000000    0.00000000   10.68892727
     atom    5 type  2   force =     0.00000000   -0.00000000  -10.68892727
     The local contribution  to forces
     atom    1 type  1   force =     0.00000000   -0.00000000    2.26808370
     atom    2 type  2   force =     0.00000000    0.00000000    0.00000000
     atom    3 type  1   force =    -0.00000000    0.00000000   -2.26808370
     atom    4 type  2   force =    -0.00000000   -0.00000000  -10.15591408
     atom    5 type  2   force =     0.00000000    0.00000000   10.15591408
     The core correction contribution to forces
     atom    1 type  1   force =    -0.00000000    0.00000000    0.00329027
     atom    2 type  2   force =    -0.00000000    0.00000000    0.00000000
     atom    3 type  1   force =     0.00000000   -0.00000000   -0.00329027
     atom    4 type  2   force =    -0.00000000    0.00000000    0.00193901
     atom    5 type  2   force =     0.00000000   -0.00000000   -0.00193901
     The Hubbard contrib.    to forces
     atom    1 type  1   force =     0.00000000    0.00000000    0.00000000
     atom    2 type  2   force =     0.00000000    0.00000000    0.00000000
     atom    3 type  1   force =     0.00000000    0.00000000    0.00000000
     atom    4 type  2   force =     0.00000000    0.00000000    0.00000000
     atom    5 type  2   force =     0.00000000    0.00000000    0.00000000
     The SCF correction term to forces
     atom    1 type  1   force =    -0.00000000    0.00000000    0.00000078
     atom    2 type  2   force =     0.00000000   -0.00000000   -0.00000000
     atom    3 type  1   force =    -0.00000000   -0.00000000   -0.00000078
     atom    4 type  2   force =     0.00000000   -0.00000000   -0.00000034
     atom    5 type  2   force =    -0.00000000   -0.00000000    0.00000034

     Dispersion contribution to forces:
     atom    1 type  1   force =    -0.00000000    0.00000000    0.00331900
     atom    2 type  2   force =    -0.00000000   -0.00000000    0.00000000
     atom    3 type  1   force =     0.00000000   -0.00000000   -0.00331900
     atom    4 type  2   force =     0.00000000   -0.00000000   -0.00261105
     atom    5 type  2   force =    -0.00000000    0.00000000    0.00261105

     Total force =     0.000145     Total SCF correction =     0.000001

     Total Dispersion Force =     0.005972

     entering subroutine stress ...

     Message from routine stres:
     noncollinear stress + GGA not implemented

     Writing output data file Bi2Se3.save

     General routines

     Parallel routines

     PAW routines

   This run was terminated on:  13:52:30  10Jan2019

   JOB DONE.